00000000000000011001100110011001
00000000000000001100110011001100
00000000010100000000000000000000
00000000000100000000000000000000
00000000000000011001100110011001
00000000000100000000000000000000
00000000000100000000000000000000
00000000000000000000000000000000
00000000000000000000000000000000
00000000000000000000000000000000
00000000000000000000000000000000
00000000000000011001100110011001
00000000000001001111100111001000
00000000000000101101011111100000
00000000000000000000000000000000
00000000000001001111100111001000
00000000000001110001101110110000
00000000000000000000000000000000
00000000000000101101011111100000
00000000000001110001101110110000
00000000000000111000110111011000
00000000000000000000000000000000
00000000000000000000000000000000
00000000000000111000110111011000
